(set-logic ALL_SUPPORTED)
(define-sort Elt () Int)
(define-sort LSet () Int)
(define-sort Str () Int)
(declare-fun smt_set_emp () LSet)
(declare-fun smt_set_add (LSet Elt) LSet)
(declare-fun smt_set_cup (LSet LSet) LSet)
(declare-fun smt_set_cap (LSet LSet) LSet)
(declare-fun smt_set_dif (LSet LSet) LSet)
(declare-fun smt_set_sub (LSet LSet) Bool)
(declare-fun smt_set_mem (Elt LSet) Bool)
(define-sort Map () (Array Elt Elt))
(define-fun smt_map_sel ((m Map) (k Elt)) Elt (select m k))
(define-fun smt_map_sto ((m Map) (k Elt) (v Elt)) Map (store m k v))
(define-fun bool_to_int ((b Bool)) Int (ite b 1 0))
(declare-datatypes ((Language.Stitch.LH.Type.Ty 0)) ((par () (Language.Stitch.LH.Type.TInt (Language.Stitch.LH.Type.TFun (Language.Stitch.LH.Type.funArgTy Language.Stitch.LH.Type.Ty) (Language.Stitch.LH.Type.funResTy Language.Stitch.LH.Type.Ty)) Language.Stitch.LH.Type.TBool))))
(declare-datatypes ((Language.Stitch.LH.Unchecked.UExp 0)) ((par () ((Language.Stitch.LH.Unchecked.UVar (Language.Stitch.LH.Unchecked.UVar$35$$35$lqdc$35$$35$$36$select$35$$35$Language.Stitch.LH.Unchecked.UVar$35$$35$1 Int)) (Language.Stitch.LH.Unchecked.ULet (Language.Stitch.LH.Unchecked.ULet$35$$35$lqdc$35$$35$$36$select$35$$35$Language.Stitch.LH.Unchecked.ULet$35$$35$2 Language.Stitch.LH.Unchecked.UExp) (Language.Stitch.LH.Unchecked.ULet$35$$35$lqdc$35$$35$$36$select$35$$35$Language.Stitch.LH.Unchecked.ULet$35$$35$1 Language.Stitch.LH.Unchecked.UExp)) (Language.Stitch.LH.Unchecked.ULam (Language.Stitch.LH.Unchecked.ULam$35$$35$lqdc$35$$35$$36$select$35$$35$Language.Stitch.LH.Unchecked.ULam$35$$35$2 Language.Stitch.LH.Type.Ty) (Language.Stitch.LH.Unchecked.ULam$35$$35$lqdc$35$$35$$36$select$35$$35$Language.Stitch.LH.Unchecked.ULam$35$$35$1 Language.Stitch.LH.Unchecked.UExp)) (Language.Stitch.LH.Unchecked.UIntE (Language.Stitch.LH.Unchecked.UIntE$35$$35$lqdc$35$$35$$36$select$35$$35$Language.Stitch.LH.Unchecked.UIntE$35$$35$1 Int)) (Language.Stitch.LH.Unchecked.UGlobal (Language.Stitch.LH.Unchecked.UGlobal$35$$35$lqdc$35$$35$$36$select$35$$35$Language.Stitch.LH.Unchecked.UGlobal$35$$35$1 Str)) (Language.Stitch.LH.Unchecked.UFix (Language.Stitch.LH.Unchecked.UFix$35$$35$lqdc$35$$35$$36$select$35$$35$Language.Stitch.LH.Unchecked.UFix$35$$35$1 Language.Stitch.LH.Unchecked.UExp)) (Language.Stitch.LH.Unchecked.UCond (Language.Stitch.LH.Unchecked.UCond$35$$35$lqdc$35$$35$$36$select$35$$35$Language.Stitch.LH.Unchecked.UCond$35$$35$3 Language.Stitch.LH.Unchecked.UExp) (Language.Stitch.LH.Unchecked.UCond$35$$35$lqdc$35$$35$$36$select$35$$35$Language.Stitch.LH.Unchecked.UCond$35$$35$2 Language.Stitch.LH.Unchecked.UExp) (Language.Stitch.LH.Unchecked.UCond$35$$35$lqdc$35$$35$$36$select$35$$35$Language.Stitch.LH.Unchecked.UCond$35$$35$1 Language.Stitch.LH.Unchecked.UExp)) (Language.Stitch.LH.Unchecked.UBoolE (Language.Stitch.LH.Unchecked.UBoolE$35$$35$lqdc$35$$35$$36$select$35$$35$Language.Stitch.LH.Unchecked.UBoolE$35$$35$1 Bool)) (Language.Stitch.LH.Unchecked.UArith (Language.Stitch.LH.Unchecked.UArith$35$$35$lqdc$35$$35$$36$select$35$$35$Language.Stitch.LH.Unchecked.UArith$35$$35$3 Language.Stitch.LH.Unchecked.UExp) (Language.Stitch.LH.Unchecked.UArith$35$$35$lqdc$35$$35$$36$select$35$$35$Language.Stitch.LH.Unchecked.UArith$35$$35$2 Int) (Language.Stitch.LH.Unchecked.UArith$35$$35$lqdc$35$$35$$36$select$35$$35$Language.Stitch.LH.Unchecked.UArith$35$$35$1 Language.Stitch.LH.Unchecked.UExp)) (Language.Stitch.LH.Unchecked.UApp (Language.Stitch.LH.Unchecked.UApp$35$$35$lqdc$35$$35$$36$select$35$$35$Language.Stitch.LH.Unchecked.UApp$35$$35$2 Language.Stitch.LH.Unchecked.UExp) (Language.Stitch.LH.Unchecked.UApp$35$$35$lqdc$35$$35$$36$select$35$$35$Language.Stitch.LH.Unchecked.UApp$35$$35$1 Language.Stitch.LH.Unchecked.UExp))))))
(declare-datatypes ((Language.Stitch.LH.Unchecked.ScopedUExp 0)) ((par () ((Language.Stitch.LH.Unchecked.ScopedUExp (Language.Stitch.LH.Unchecked.n Int) (lqdc$35$$35$$36$select$35$$35$Language.Stitch.LH.Unchecked.ScopedUExp$35$$35$1 Language.Stitch.LH.Unchecked.UExp))))))
(declare-datatypes ((Language.Stitch.LH.Pretty.ScopedVar 0)) ((par () ((Language.Stitch.LH.Pretty.ScopedVar (Language.Stitch.LH.Pretty.maxIndex Int) (Language.Stitch.LH.Pretty.scopedIndex Int))))))
(declare-datatypes ((Language.Stitch.LH.Check.TyError 0)) ((par () ((Language.Stitch.LH.Check.TypeMismatch (Language.Stitch.LH.Check.TypeMismatch$35$$35$lqdc$35$$35$$36$select$35$$35$Language.Stitch.LH.Check.TypeMismatch$35$$35$4 Language.Stitch.LH.Unchecked.ScopedUExp) (Language.Stitch.LH.Check.TypeMismatch$35$$35$lqdc$35$$35$$36$select$35$$35$Language.Stitch.LH.Check.TypeMismatch$35$$35$3 Language.Stitch.LH.Type.Ty) (Language.Stitch.LH.Check.TypeMismatch$35$$35$lqdc$35$$35$$36$select$35$$35$Language.Stitch.LH.Check.TypeMismatch$35$$35$2 Language.Stitch.LH.Type.Ty) (Language.Stitch.LH.Check.TypeMismatch$35$$35$lqdc$35$$35$$36$select$35$$35$Language.Stitch.LH.Check.TypeMismatch$35$$35$1 Language.Stitch.LH.Unchecked.ScopedUExp)) (Language.Stitch.LH.Check.OutOfScopeGlobal (Language.Stitch.LH.Check.OutOfScopeGlobal$35$$35$lqdc$35$$35$$36$select$35$$35$Language.Stitch.LH.Check.OutOfScopeGlobal$35$$35$1 Str)) (Language.Stitch.LH.Check.NotAFunction (Language.Stitch.LH.Check.NotAFunction$35$$35$lqdc$35$$35$$36$select$35$$35$Language.Stitch.LH.Check.NotAFunction$35$$35$2 Language.Stitch.LH.Unchecked.ScopedUExp) (Language.Stitch.LH.Check.NotAFunction$35$$35$lqdc$35$$35$$36$select$35$$35$Language.Stitch.LH.Check.NotAFunction$35$$35$1 Language.Stitch.LH.Type.Ty))))))
(declare-datatypes ((Language.Stitch.LH.Check.Exp 0)) ((par () ((Language.Stitch.LH.Check.Var (Language.Stitch.LH.Check.varTyp Language.Stitch.LH.Type.Ty) (Language.Stitch.LH.Check.varNat Int)) (Language.Stitch.LH.Check.Let (Language.Stitch.LH.Check.letExp Language.Stitch.LH.Check.Exp) (Language.Stitch.LH.Check.letBdy Language.Stitch.LH.Check.Exp)) (Language.Stitch.LH.Check.Lam (Language.Stitch.LH.Check.lamTyp Language.Stitch.LH.Type.Ty) (Language.Stitch.LH.Check.lamBdy Language.Stitch.LH.Check.Exp)) (Language.Stitch.LH.Check.IntE (Language.Stitch.LH.Check.intVal Int)) (Language.Stitch.LH.Check.Fix (Language.Stitch.LH.Check.fixFun Language.Stitch.LH.Check.Exp)) (Language.Stitch.LH.Check.Cond (Language.Stitch.LH.Check.conPrc Language.Stitch.LH.Check.Exp) (Language.Stitch.LH.Check.conCon Language.Stitch.LH.Check.Exp) (Language.Stitch.LH.Check.conAnt Language.Stitch.LH.Check.Exp)) (Language.Stitch.LH.Check.BoolE (Language.Stitch.LH.Check.bolVal Bool)) (Language.Stitch.LH.Check.Arith (Language.Stitch.LH.Check.ariLhs Language.Stitch.LH.Check.Exp) (Language.Stitch.LH.Check.ariOp Int) (Language.Stitch.LH.Check.ariRhs Language.Stitch.LH.Check.Exp)) (Language.Stitch.LH.Check.App (Language.Stitch.LH.Check.appFun Language.Stitch.LH.Check.Exp) (Language.Stitch.LH.Check.appArg Language.Stitch.LH.Check.Exp))))))
(declare-datatypes ((Language.Stitch.LH.Check.ScopedExp 0)) ((par () ((Language.Stitch.LH.Check.ScopedExp (Language.Stitch.LH.Check.n Int) (lqdc$35$$35$$36$select$35$$35$Language.Stitch.LH.Check.ScopedExp$35$$35$1 Language.Stitch.LH.Check.Exp))))))
(declare-datatypes ((Language.Stitch.LH.Check.TypedExp 0)) ((par () ((Language.Stitch.LH.Check.TypedExp (Language.Stitch.LH.Check.texp Language.Stitch.LH.Check.Exp) (Language.Stitch.LH.Check.tty Language.Stitch.LH.Type.Ty))))))
(declare-datatypes ((Language.Stitch.LH.Check.Globals 0)) ((par () ((Language.Stitch.LH.Check.Globals (Language.Stitch.LH.Check.Globals$35$$35$lqdc$35$$35$$36$select$35$$35$Language.Stitch.LH.Check.Globals$35$$35$1 Int))))))
(declare-fun lq_tmp$36$x$35$$35$9288 () Int)
(declare-fun VV$35$$35$F$35$$35$376 () Int)
(declare-fun Language.Stitch.LH.Check.emptyGlobals () Int)
(declare-fun lq_karg$36$globals$35$$35$a3W6$35$$35$k_$35$$35$7041 () Int)
(declare-fun lq_karg$36$ctx$35$$35$a3W9$35$$35$k_$35$$35$6851 () Int)
(declare-fun GHC.Show.showParen () Int)
(declare-fun lq_karg$36$lq_anf$36$$35$$35$7205759403792813118$35$$35$d54O$35$$35$k_$35$$35$5289 () Int)
(declare-fun Language.Stitch.LH.Check.$36$tc$39$TypedExp () Int)
(declare-fun GHC.Base.id () Int)
(declare-fun lq_tmp$36$x$35$$35$9039 () Language.Stitch.LH.Type.Ty)
(declare-fun lq_karg$36$ctx$35$$35$a3W9$35$$35$k_$35$$35$7656 () Int)
(declare-fun lq_anf$36$$35$$35$7205759403792813267$35$$35$d57d () Int)
(declare-fun lq_karg$36$Language.Stitch.LH.Check.emptyGlobals$35$$35$k_$35$$35$3053 () Int)
(declare-fun lq_karg$36$ctx1$35$$35$a3VF$35$$35$k_$35$$35$5055 () Int)
(declare-fun Language.Stitch.LH.Type.$36$fEqTy () Int)
(declare-fun lq_anf$36$$35$$35$7205759403792813232$35$$35$d56E () Language.Stitch.LH.Unchecked.UExp)
(declare-fun cast_as_int () Int)
(declare-fun lq_anf$36$$35$$35$7205759403792812784$35$$35$d4Zq () Int)
(declare-fun fix$36$$36$krep_a4bD () Int)
(declare-fun lq_tmp$36$x$35$$35$2706 () Int)
(declare-fun lq_karg$36$lq_anf$36$$35$$35$7205759403792813130$35$$35$d550$35$$35$k_$35$$35$5654 () Int)
(declare-fun lq_anf$36$$35$$35$7205759403792813177$35$$35$d55L () Int)
(declare-fun lq_karg$36$globals$35$$35$a3W6$35$$35$k_$35$$35$6859 () Int)
(declare-fun lq_anf$36$$35$$35$7205759403792813127$35$$35$d54X () Int)
(declare-fun ty$35$$35$a3UN () Language.Stitch.LH.Type.Ty)
(declare-fun Data.Set.Internal.singleton () Int)
(declare-fun Data.Set.Internal.insert () Int)
(declare-fun VV$35$$35$F$35$$35$31 () Language.Stitch.LH.Check.Exp)
(declare-fun lq_anf$36$$35$$35$7205759403792812674$35$$35$d4XE () Language.Stitch.LH.Unchecked.UExp)
(declare-fun lq_karg$36$globals$35$$35$a3W6$35$$35$k_$35$$35$8147 () Int)
(declare-fun fix$36$$36$cpretty$35$$35$a4aQ () Int)
(declare-fun VV$35$$35$F$35$$35$112 () Language.Stitch.LH.Unchecked.UExp)
(declare-fun lq_anf$36$$35$$35$7205759403792813198$35$$35$d566 () Int)
(declare-fun lq_karg$36$te1$35$$35$a3WK$35$$35$k_$35$$35$8171 () Language.Stitch.LH.Check.Exp)
(declare-fun lq_karg$36$globals$35$$35$a3W6$35$$35$k_$35$$35$7467 () Int)
(declare-fun ds_d4JV () Language.Stitch.LH.Check.Exp)
(declare-fun lq_anf$36$$35$$35$7205759403792813108$35$$35$d54E () Bool)
(declare-fun lq_anf$36$$35$$35$7205759403792812786$35$$35$d4Zs () Int)
(declare-fun lq_anf$36$$35$$35$7205759403792812696$35$$35$d4Y0 () Int)
(declare-fun lq_anf$36$$35$$35$7205759403792812676$35$$35$d4XG () Language.Stitch.LH.Unchecked.UExp)
(declare-fun lq_anf$36$$35$$35$7205759403792812672$35$$35$d4XC () Language.Stitch.LH.Unchecked.UExp)
(declare-fun GHC.Real.rem () Int)
(declare-fun listElts () Int)
(declare-fun lq_tmp$36$x$35$$35$2760 () Int)
(declare-fun GHC.List.init () Int)
(declare-fun ty1$35$$35$a3WE () Language.Stitch.LH.Type.Ty)
(declare-fun lq_anf$36$$35$$35$7205759403792812678$35$$35$d4XI () Language.Stitch.LH.Unchecked.UExp)
(declare-fun VV$35$$35$F$35$$35$417 () Int)
(declare-fun lq_karg$36$lq_anf$36$$35$$35$7205759403792813121$35$$35$d54R$35$$35$k_$35$$35$5455 () Int)
(declare-fun lq_anf$36$$35$$35$7205759403792812715$35$$35$d4Yj () Str)
(declare-fun lq_tmp$36$x$35$$35$6984 () Language.Stitch.LH.Check.Exp)
(declare-fun lq_karg$36$e2$35$$35$a3VX$35$$35$k_$35$$35$5654 () Language.Stitch.LH.Check.Exp)
(declare-fun VV$35$$35$F$35$$35$233 () Language.Stitch.LH.Unchecked.UExp)
(declare-fun lq_tmp$36$x$35$$35$6588 () Int)
(declare-fun ds_d4L0 () Int)
(declare-fun VV$35$$35$F$35$$35$398 () Int)
(declare-fun lq_karg$36$lq_anf$36$$35$$35$7205759403792813139$35$$35$d559$35$$35$k_$35$$35$5825 () Int)
(declare-fun lq_karg$36$Language.Stitch.LH.Check.emptyGlobals$35$$35$k_$35$$35$5967 () Int)
(declare-fun lq_karg$36$e2$35$$35$a3WI$35$$35$k_$35$$35$8147 () Language.Stitch.LH.Unchecked.UExp)
(declare-fun addrLen () Int)
(declare-fun lq_anf$36$$35$$35$7205759403792812769$35$$35$d4Zb () Int)
(declare-fun lq_karg$36$te2$35$$35$a3WM$35$$35$k_$35$$35$8174 () Language.Stitch.LH.Check.Exp)
(declare-fun lq_tmp$36$x$35$$35$5134 () Language.Stitch.LH.Type.Ty)
(declare-fun lq_anf$36$$35$$35$7205759403792813173$35$$35$d55H () Int)
(declare-fun lit$36$$39$Arith () Str)
(declare-fun lq_karg$36$Language.Stitch.LH.Check.emptyGlobals$35$$35$k_$35$$35$5055 () Int)
(declare-fun lq_karg$36$globals$35$$35$a3W6$35$$35$k_$35$$35$7665 () Int)
(declare-fun GHC.Types.$36$tcChar () Int)
(declare-fun e$35$$35$a3X3 () Language.Stitch.LH.Check.TypedExp)
(declare-fun lq_anf$36$$35$$35$7205759403792812695$35$$35$d4XZ () Int)
(declare-fun lq_karg$36$globals$35$$35$a3W6$35$$35$k_$35$$35$6657 () Int)
(declare-fun lq_tmp$36$x$35$$35$7499 () Language.Stitch.LH.Type.Ty)
(declare-fun e1$35$$35$a3Vt () Language.Stitch.LH.Check.Exp)
(declare-fun fix$36$$36$krep_a4bd () Int)
(declare-fun lq_anf$36$$35$$35$7205759403792812670$35$$35$d4XA () Language.Stitch.LH.Unchecked.UExp)
(declare-fun papp5 () Int)
(declare-fun lq_karg$36$e1$35$$35$a3Wl$35$$35$k_$35$$35$7038 () Language.Stitch.LH.Unchecked.UExp)
(declare-fun VV$35$$35$F$35$$35$130 () Language.Stitch.LH.Unchecked.UExp)
(declare-fun Language.Haskell.Liquid.ProofCombinators.Admit () Int)
(declare-fun VV$35$$35$F$35$$35$310 () Int)
(declare-fun GHC.List.iterate () Int)
(declare-fun lq_karg$36$ctx$35$$35$a3W9$35$$35$k_$35$$35$8174 () Int)
(declare-fun lq_karg$36$lq_anf$36$$35$$35$7205759403792813138$35$$35$d558$35$$35$k_$35$$35$5825 () Int)
(declare-fun x_Tuple21 () Int)
(declare-fun lq_karg$36$e1$35$$35$a3W2$35$$35$k_$35$$35$5825 () Language.Stitch.LH.Check.Exp)
(declare-fun lq_karg$36$ctx0$35$$35$a3VE$35$$35$k_$35$$35$5183 () Int)
(declare-fun lq_anf$36$$35$$35$7205759403792812697$35$$35$d4Y1 () Int)
(declare-fun VV$35$$35$F$35$$35$299 () Int)
(declare-fun lq_karg$36$lq_anf$36$$35$$35$7205759403792813106$35$$35$d54C$35$$35$k_$35$$35$5055 () Language.Stitch.LH.Check.Exp)
(declare-fun VV$35$$35$F$35$$35$354 () Language.Stitch.LH.Check.Exp)
(declare-fun lq_karg$36$lq_anf$36$$35$$35$7205759403792813186$35$$35$d55U$35$$35$k_$35$$35$6851 () Int)
(declare-fun fix$36$$36$krep_a4bt () Int)
(declare-fun GHC.Classes.$61$$61$ () Int)
(declare-fun lq_anf$36$$35$$35$7205759403792812801$35$$35$d4ZH () Int)
(declare-fun lq_tmp$36$x$35$$35$7492 () Language.Stitch.LH.Type.Ty)
(declare-fun GHC.Types.C$35$ () Int)
(declare-fun GHC.List.drop () Int)
(declare-fun VV$35$$35$F$35$$35$100 () Int)
(declare-fun VV$35$$35$F$35$$35$427 () Language.Stitch.LH.Unchecked.UExp)
(declare-fun VV$35$$35$F$35$$35$405 () Int)
(declare-fun lq_tmp$36$x$35$$35$4804 () Language.Stitch.LH.Type.Ty)
(declare-fun lq_anf$36$$35$$35$7205759403792813114$35$$35$d54K () Language.Stitch.LH.Type.Ty)
(declare-fun lit$36$letBdy () Str)
(declare-fun fix$36$$36$krep_a4bo () Int)
(declare-fun lq_anf$36$$35$$35$7205759403792812728$35$$35$d4Yw () Int)
(declare-fun lq_tmp$36$x$35$$35$6655 () Language.Stitch.LH.Type.Ty)
(declare-fun VV$35$$35$F$35$$35$166 () Int)
(declare-fun lq_tmp$36$x$35$$35$7887 () Language.Stitch.LH.Type.Ty)
(declare-fun lq_karg$36$lq_anf$36$$35$$35$7205759403792813106$35$$35$d54C$35$$35$k_$35$$35$5289 () Language.Stitch.LH.Check.Exp)
(declare-fun Language.Stitch.LH.Check.check () Int)
(declare-fun fix$36$$36$cshowList$35$$35$a4au () Int)
(declare-fun i$35$$35$a3Wc () Int)
(declare-fun lq_anf$36$$35$$35$7205759403792812748$35$$35$d4YQ () Int)
(declare-fun lq_anf$36$$35$$35$7205759403792813204$35$$35$d56c () Int)
(declare-fun lq_anf$36$$35$$35$7205759403792812709$35$$35$d4Yd () Int)
(declare-fun VV$35$$35$F$35$$35$292 () Int)
(declare-fun Language.Haskell.Liquid.ProofCombinators.withProof () Int)
(declare-fun lq_tmp$36$x$35$$35$5162 () Language.Stitch.LH.Type.Ty)
(declare-fun Language.Stitch.LH.Check.$36$tcExp () Int)
(declare-fun lq_anf$36$$35$$35$7205759403792812689$35$$35$d4XT () Int)
(declare-fun lit$36$App$32$$123$ () Str)
(declare-fun te1$35$$35$a3WR () Language.Stitch.LH.Check.Exp)
(declare-fun lq_tmp$36$x$35$$35$4994 () Language.Stitch.LH.Type.Ty)
(declare-fun lit$36$$58$ () Str)
(declare-fun lq_karg$36$Language.Stitch.LH.Check.emptyGlobals$35$$35$k_$35$$35$5047 () Int)
(declare-fun lq_tmp$36$x$35$$35$7227 () Language.Stitch.LH.Type.Ty)
(declare-fun lq_karg$36$ty1$35$$35$a3WL$35$$35$k_$35$$35$8171 () Language.Stitch.LH.Type.Ty)
(declare-fun lq_anf$36$$35$$35$7205759403792813243$35$$35$d56P () Language.Stitch.LH.Unchecked.ScopedUExp)
(declare-fun lq_anf$36$$35$$35$7205759403792812683$35$$35$d4XN () Language.Stitch.LH.Check.TypedExp)
(declare-fun lq_karg$36$Language.Stitch.LH.Check.emptyGlobals$35$$35$k_$35$$35$2783 () Int)
(declare-fun lit$36$bolVal () Str)
(declare-fun lq_tmp$36$x$35$$35$9133 () Language.Stitch.LH.Type.Ty)
(declare-fun Language.Stitch.LH.Data.List.length () Int)
(declare-fun lq_tmp$36$x$35$$35$4352 () Language.Stitch.LH.Type.Ty)
(declare-fun VV$35$$35$F$35$$35$23 () Language.Stitch.LH.Check.Exp)
(declare-fun b$35$$35$a3WX () Bool)
(declare-fun VV$35$$35$F$35$$35$191 () Language.Stitch.LH.Type.Ty)
(declare-fun lq_tmp$36$x$35$$35$8761 () Language.Stitch.LH.Type.Ty)
(declare-fun lq_anf$36$$35$$35$7205759403792812790$35$$35$d4Zw () Int)
